p cnf 12 50 
-10 -1 8 0
3 -7 -5 0
1 10 2 0
9 -7 12 0
-5 3 -12 0
3 7 2 0
-10 3 -7 0
9 -3 -8 0
7 -4 3 0
7 3 8 0
4 1 11 0
-3 5 4 0
-10 -5 4 0
4 7 -6 0
8 3 -10 0
-11 -6 -4 0
-5 11 4 0
-4 9 -7 0
10 3 -5 0
-12 -5 -6 0
11 3 -1 0
-11 5 7 0
3 11 -9 0
-1 11 5 0
10 12 2 0
-6 7 11 0
-6 2 5 0
-6 4 2 0
-5 6 2 0
6 -3 4 0
-2 7 11 0
-9 -11 -8 0
-11 -3 10 0
10 -1 8 0
5 2 -8 0
-2 -11 7 0
1 4 -2 0
-7 1 10 0
6 -4 9 0
-4 7 11 0
7 1 -8 0
2 -4 -9 0
4 2 -7 0
11 2 5 0
2 1 -7 0
-7 -10 12 0
7 -11 -3 0
12 -6 4 0
-7 9 -10 0
-2 -7 12 0
